NAME : sim81.96923.tour
COMMENT : Length = 96923
COMMENT : Found by LKH [Keld Helsgaun] Sun Sep 16 22:56:06 2018
TYPE : TOUR
DIMENSION : 81
TOUR_SECTION
1
17
64
5
62
70
57
36
75
23
51
52
71
69
4
68
26
78
19
58
45
32
55
16
38
11
76
67
2
46
10
13
61
25
3
53
21
9
81
42
44
28
8
20
35
60
54
72
59
79
77
22
12
30
41
65
18
49
34
40
48
39
7
33
31
37
63
66
56
43
6
24
27
73
15
14
74
80
29
50
47
-1
EOF
